NAME : EXPLORATION
TYPE : ATSP
DIMENSION : 6
EDGE_WEIGHT_TYPE: EXPLICIT
EDGE_WEIGHT_FORMAT: FULL_MATRIX
EDGE_WEIGHT_SECTION
0 10647 6542 10093 12240 0 
10647 0 11523 4991 3118 0 
6542 11523 0 13621 11387 0 
10093 4991 13621 0 8105 0 
12240 3118 11387 8105 0 0 
7243 10906 13396 7088 13757 0 
